(set-logic QF_BV)

(declare-const __ESBMC_ptr_obj_start_0 (_ BitVec 64))

(declare-const __ESBMC_ptr_obj_end_0 (_ BitVec 64))

(declare-const __ESBMC_ptr_obj_start_1 (_ BitVec 64))

(declare-const __ESBMC_ptr_obj_end_1 (_ BitVec 64))

(declare-const |smt_conv::__ESBMC_ptr_addr_range_0..start0| (_ BitVec 64))

(declare-const |smt_conv::__ESBMC_ptr_addr_range_0..end0| (_ BitVec 64))

(declare-const |smt_conv::__ESBMC_ptr_addr_range_1..start0| (_ BitVec 64))

(declare-const |smt_conv::__ESBMC_ptr_addr_range_1..end0| (_ BitVec 64))

(declare-const |smt_conv::smt_conv::collate_array_vals::3..start0| (_ BitVec 64))

(declare-const |smt_conv::smt_conv::collate_array_vals::3..end0| (_ BitVec 64))

(declare-const |smt_conv::smt_conv::collate_array_vals::4..start0| (_ BitVec 64))

(declare-const |smt_conv::smt_conv::collate_array_vals::4..end0| (_ BitVec 64))

(declare-const |smt_conv::smt_conv::collate_array_vals::7..start0| (_ BitVec 64))

(declare-const |smt_conv::smt_conv::collate_array_vals::7..end0| (_ BitVec 64))

(declare-const |c:simple_1-1.c@382@F@main@x?1!0&0#2| (_ BitVec 32))

(declare-const |nondet$symex::nondet34| (_ BitVec 32))

(declare-const |goto_symex::guard?0!0&0#1| (_ BitVec 1))

(declare-const |c:simple_1-1.c@382@F@main@x?1!0&0#3| (_ BitVec 32))

(declare-const |goto_symex::guard?0!0&0#2| (_ BitVec 1))

(declare-const |c:simple_1-1.c@382@F@main@x?1!0&0#4| (_ BitVec 32))

(declare-const |goto_symex::guard?0!0&0#3| (_ BitVec 1))

(declare-const |c:simple_1-1.c@382@F@main@x?1!0&0#5| (_ BitVec 32))

(declare-const |goto_symex::guard?0!0&0#4| (_ BitVec 1))

(declare-const |c:simple_1-1.c@382@F@main@x?1!0&0#6| (_ BitVec 32))

(declare-const |goto_symex::guard?0!0&0#5| (_ BitVec 1))

(declare-const |c:simple_1-1.c@382@F@main@x?1!0&0#7| (_ BitVec 32))

(declare-const |goto_symex::guard?0!0&0#6| (_ BitVec 1))

(declare-const |c:simple_1-1.c@382@F@main@x?1!0&0#8| (_ BitVec 32))

(declare-const |goto_symex::guard?0!0&0#7| (_ BitVec 1))

(declare-const |c:simple_1-1.c@382@F@main@x?1!0&0#9| (_ BitVec 32))

(declare-const |goto_symex::guard?0!0&0#8| (_ BitVec 1))

(declare-const |c:simple_1-1.c@382@F@main@x?1!0&0#10| (_ BitVec 32))

(declare-const |goto_symex::guard?0!0&0#9| (_ BitVec 1))

(declare-const |c:simple_1-1.c@382@F@main@x?1!0&0#11| (_ BitVec 32))

(declare-const |goto_symex::guard?0!0&0#10| (_ BitVec 1))

(declare-const |c:simple_1-1.c@382@F@main@x?1!0&0#12| (_ BitVec 32))

(declare-const |goto_symex::guard?0!0&0#11| (_ BitVec 1))

(declare-const |c:simple_1-1.c@382@F@main@x?1!0&0#13| (_ BitVec 32))

(declare-const |goto_symex::guard?0!0&0#12| (_ BitVec 1))

(declare-const |c:simple_1-1.c@382@F@main@x?1!0&0#14| (_ BitVec 32))

(declare-const |goto_symex::guard?0!0&0#13| (_ BitVec 1))

(declare-const |c:simple_1-1.c@382@F@main@x?1!0&0#15| (_ BitVec 32))

(declare-const |goto_symex::guard?0!0&0#14| (_ BitVec 1))

(declare-const |c:simple_1-1.c@382@F@main@x?1!0&0#16| (_ BitVec 32))

(declare-const |goto_symex::guard?0!0&0#15| (_ BitVec 1))

(declare-const |c:simple_1-1.c@382@F@main@x?1!0&0#17| (_ BitVec 32))

(declare-const |goto_symex::guard?0!0&0#16| (_ BitVec 1))

(declare-const |c:simple_1-1.c@382@F@main@x?1!0&0#18| (_ BitVec 32))

(declare-const |goto_symex::guard?0!0&0#17| (_ BitVec 1))

(declare-const |c:simple_1-1.c@382@F@main@x?1!0&0#19| (_ BitVec 32))

(declare-const |goto_symex::guard?0!0&0#18| (_ BitVec 1))

(declare-const |c:simple_1-1.c@382@F@main@x?1!0&0#20| (_ BitVec 32))

(declare-const |goto_symex::guard?0!0&0#19| (_ BitVec 1))

(declare-const |c:simple_1-1.c@382@F@main@x?1!0&0#21| (_ BitVec 32))

(declare-const |goto_symex::guard?0!0&0#20| (_ BitVec 1))

(declare-const |c:simple_1-1.c@382@F@main@x?1!0&0#22| (_ BitVec 32))

(declare-const |goto_symex::guard?0!0&0#21| (_ BitVec 1))

(declare-const |c:simple_1-1.c@382@F@main@x?1!0&0#23| (_ BitVec 32))

(declare-const |goto_symex::guard?0!0&0#22| (_ BitVec 1))

(declare-const |c:simple_1-1.c@382@F@main@x?1!0&0#24| (_ BitVec 32))

(declare-const |goto_symex::guard?0!0&0#23| (_ BitVec 1))

(declare-const |c:simple_1-1.c@382@F@main@x?1!0&0#25| (_ BitVec 32))

(declare-const |goto_symex::guard?0!0&0#24| (_ BitVec 1))

(declare-const |c:simple_1-1.c@382@F@main@x?1!0&0#26| (_ BitVec 32))

(declare-const |goto_symex::guard?0!0&0#25| (_ BitVec 1))

(declare-const |c:simple_1-1.c@382@F@main@x?1!0&0#27| (_ BitVec 32))

(declare-const |goto_symex::guard?0!0&0#26| (_ BitVec 1))

(declare-const |c:simple_1-1.c@382@F@main@x?1!0&0#28| (_ BitVec 32))

(declare-const |goto_symex::guard?0!0&0#27| (_ BitVec 1))

(declare-const |c:simple_1-1.c@382@F@main@x?1!0&0#29| (_ BitVec 32))

(declare-const |goto_symex::guard?0!0&0#28| (_ BitVec 1))

(declare-const |c:simple_1-1.c@382@F@main@x?1!0&0#30| (_ BitVec 32))

(declare-const |goto_symex::guard?0!0&0#29| (_ BitVec 1))

(declare-const |c:simple_1-1.c@382@F@main@x?1!0&0#31| (_ BitVec 32))

(declare-const |goto_symex::guard?0!0&0#30| (_ BitVec 1))

(declare-const |c:simple_1-1.c@382@F@main@x?1!0&0#32| (_ BitVec 32))

(declare-const |goto_symex::guard?0!0&0#31| (_ BitVec 1))

(declare-const |c:simple_1-1.c@382@F@main@x?1!0&0#33| (_ BitVec 32))

(declare-const |goto_symex::guard?0!0&0#32| (_ BitVec 1))

(declare-const |c:simple_1-1.c@382@F@main@x?1!0&0#34| (_ BitVec 32))

(declare-const |goto_symex::guard?0!0&0#33| (_ BitVec 1))

(declare-const |c:simple_1-1.c@382@F@main@x?1!0&0#35| (_ BitVec 32))

(declare-const |goto_symex::guard?0!0&0#34| (_ BitVec 1))

(declare-const |c:simple_1-1.c@382@F@main@x?1!0&0#36| (_ BitVec 32))

(declare-const |goto_symex::guard?0!0&0#35| (_ BitVec 1))

(declare-const |c:simple_1-1.c@382@F@main@x?1!0&0#37| (_ BitVec 32))

(declare-const |goto_symex::guard?0!0&0#36| (_ BitVec 1))

(declare-const |c:simple_1-1.c@382@F@main@x?1!0&0#38| (_ BitVec 32))

(declare-const |c:simple_1-1.c@382@F@main@x?1!0&0#39| (_ BitVec 32))

(declare-const |c:simple_1-1.c@382@F@main@x?1!0&0#40| (_ BitVec 32))

(declare-const |c:simple_1-1.c@382@F@main@x?1!0&0#41| (_ BitVec 32))

(declare-const |c:simple_1-1.c@382@F@main@x?1!0&0#42| (_ BitVec 32))

(declare-const |c:simple_1-1.c@382@F@main@x?1!0&0#43| (_ BitVec 32))

(declare-const |c:simple_1-1.c@382@F@main@x?1!0&0#44| (_ BitVec 32))

(declare-const |c:simple_1-1.c@382@F@main@x?1!0&0#45| (_ BitVec 32))

(declare-const |c:simple_1-1.c@382@F@main@x?1!0&0#46| (_ BitVec 32))

(declare-const |c:simple_1-1.c@382@F@main@x?1!0&0#47| (_ BitVec 32))

(declare-const |c:simple_1-1.c@382@F@main@x?1!0&0#48| (_ BitVec 32))

(declare-const |c:simple_1-1.c@382@F@main@x?1!0&0#49| (_ BitVec 32))

(declare-const |c:simple_1-1.c@382@F@main@x?1!0&0#50| (_ BitVec 32))

(declare-const |c:simple_1-1.c@382@F@main@x?1!0&0#51| (_ BitVec 32))

(declare-const |c:simple_1-1.c@382@F@main@x?1!0&0#52| (_ BitVec 32))

(declare-const |c:simple_1-1.c@382@F@main@x?1!0&0#53| (_ BitVec 32))

(declare-const |c:simple_1-1.c@382@F@main@x?1!0&0#54| (_ BitVec 32))

(declare-const |c:simple_1-1.c@382@F@main@x?1!0&0#55| (_ BitVec 32))

(declare-const |c:simple_1-1.c@382@F@main@x?1!0&0#56| (_ BitVec 32))

(declare-const |c:simple_1-1.c@382@F@main@x?1!0&0#57| (_ BitVec 32))

(declare-const |c:simple_1-1.c@382@F@main@x?1!0&0#58| (_ BitVec 32))

(declare-const |c:simple_1-1.c@382@F@main@x?1!0&0#59| (_ BitVec 32))

(declare-const |c:simple_1-1.c@382@F@main@x?1!0&0#60| (_ BitVec 32))

(declare-const |c:simple_1-1.c@382@F@main@x?1!0&0#61| (_ BitVec 32))

(declare-const |c:simple_1-1.c@382@F@main@x?1!0&0#62| (_ BitVec 32))

(declare-const |c:simple_1-1.c@382@F@main@x?1!0&0#63| (_ BitVec 32))

(declare-const |c:simple_1-1.c@382@F@main@x?1!0&0#64| (_ BitVec 32))

(declare-const |c:simple_1-1.c@382@F@main@x?1!0&0#65| (_ BitVec 32))

(declare-const |c:simple_1-1.c@382@F@main@x?1!0&0#66| (_ BitVec 32))

(declare-const |c:simple_1-1.c@382@F@main@x?1!0&0#67| (_ BitVec 32))

(declare-const |c:simple_1-1.c@382@F@main@x?1!0&0#68| (_ BitVec 32))

(declare-const |c:simple_1-1.c@382@F@main@x?1!0&0#69| (_ BitVec 32))

(declare-const |c:simple_1-1.c@382@F@main@x?1!0&0#70| (_ BitVec 32))

(declare-const |c:simple_1-1.c@382@F@main@x?1!0&0#71| (_ BitVec 32))

(declare-const |c:simple_1-1.c@382@F@main@x?1!0&0#72| (_ BitVec 32))

(declare-const |c:simple_1-1.c@382@F@main@x?1!0&0#73| (_ BitVec 32))

(declare-const |c:simple_1-1.c@382@F@main@x?1!0&0#74| (_ BitVec 32))

(declare-const |c:simple_1-1.c@281@F@__VERIFIER_assert@cond?1!0&0#1| (_ BitVec 32))

(declare-const |goto_symex::guard?0!0&0#37| (_ BitVec 1))

(declare-const |execution_statet::guard_exec?0!0| (_ BitVec 1))

(define-fun $e1 () Bool 

 (bvult |c:simple_1-1.c@382@F@main@x?1!0&0#2| #b00001111111111111111111111111111))

(define-fun $e2 () (_ BitVec 1) 

 (bvand |goto_symex::guard?0!0&0#1| |goto_symex::guard?0!0&0#2|))

(define-fun $e3 () (_ BitVec 1) 

 (bvand $e2 |goto_symex::guard?0!0&0#3|))

(define-fun $e4 () (_ BitVec 1) 

 (bvand $e3 |goto_symex::guard?0!0&0#4|))

(define-fun $e5 () (_ BitVec 1) 

 (bvand $e4 |goto_symex::guard?0!0&0#5|))

(define-fun $e6 () (_ BitVec 1) 

 (bvand $e5 |goto_symex::guard?0!0&0#6|))

(define-fun $e7 () (_ BitVec 1) 

 (bvand $e6 |goto_symex::guard?0!0&0#7|))

(define-fun $e8 () (_ BitVec 1) 

 (bvand $e7 |goto_symex::guard?0!0&0#8|))

(define-fun $e9 () (_ BitVec 1) 

 (bvand $e8 |goto_symex::guard?0!0&0#9|))

(define-fun $e10 () (_ BitVec 1) 

 (bvand $e9 |goto_symex::guard?0!0&0#10|))

(define-fun $e11 () (_ BitVec 1) 

 (bvand $e10 |goto_symex::guard?0!0&0#11|))

(define-fun $e12 () (_ BitVec 1) 

 (bvand $e11 |goto_symex::guard?0!0&0#12|))

(define-fun $e13 () (_ BitVec 1) 

 (bvand $e12 |goto_symex::guard?0!0&0#13|))

(define-fun $e14 () (_ BitVec 1) 

 (bvand $e13 |goto_symex::guard?0!0&0#14|))

(define-fun $e15 () (_ BitVec 1) 

 (bvand $e14 |goto_symex::guard?0!0&0#15|))

(define-fun $e16 () (_ BitVec 1) 

 (bvand $e15 |goto_symex::guard?0!0&0#16|))

(define-fun $e17 () (_ BitVec 1) 

 (bvand $e16 |goto_symex::guard?0!0&0#17|))

(define-fun $e18 () (_ BitVec 1) 

 (bvand $e17 |goto_symex::guard?0!0&0#18|))

(define-fun $e19 () (_ BitVec 1) 

 (bvand $e18 |goto_symex::guard?0!0&0#19|))

(define-fun $e20 () (_ BitVec 1) 

 (bvand $e19 |goto_symex::guard?0!0&0#20|))

(define-fun $e21 () (_ BitVec 1) 

 (bvand $e20 |goto_symex::guard?0!0&0#21|))

(define-fun $e22 () (_ BitVec 1) 

 (bvand $e21 |goto_symex::guard?0!0&0#22|))

(define-fun $e23 () (_ BitVec 1) 

 (bvand $e22 |goto_symex::guard?0!0&0#23|))

(define-fun $e24 () (_ BitVec 1) 

 (bvand $e23 |goto_symex::guard?0!0&0#24|))

(define-fun $e25 () (_ BitVec 1) 

 (bvand $e24 |goto_symex::guard?0!0&0#25|))

(define-fun $e26 () (_ BitVec 1) 

 (bvand $e25 |goto_symex::guard?0!0&0#26|))

(define-fun $e27 () (_ BitVec 1) 

 (bvand $e26 |goto_symex::guard?0!0&0#27|))

(define-fun $e28 () (_ BitVec 1) 

 (bvand $e27 |goto_symex::guard?0!0&0#28|))

(define-fun $e29 () (_ BitVec 1) 

 (bvand $e28 |goto_symex::guard?0!0&0#29|))

(define-fun $e30 () (_ BitVec 1) 

 (bvand $e29 |goto_symex::guard?0!0&0#30|))

(define-fun $e31 () (_ BitVec 1) 

 (bvand $e30 |goto_symex::guard?0!0&0#31|))

(define-fun $e32 () (_ BitVec 1) 

 (bvand $e31 |goto_symex::guard?0!0&0#32|))

(define-fun $e33 () (_ BitVec 1) 

 (bvand $e32 |goto_symex::guard?0!0&0#33|))

(define-fun $e34 () (_ BitVec 1) 

 (bvand $e33 |goto_symex::guard?0!0&0#34|))

(define-fun $e35 () (_ BitVec 1) 

 (bvand $e34 |goto_symex::guard?0!0&0#35|))

(define-fun $e36 () Bool 

 (= #b00000000000000000000000000000000 |c:simple_1-1.c@281@F@__VERIFIER_assert@cond?1!0&0#1|))

(assert 

 (= __ESBMC_ptr_obj_start_0 #b0000000000000000000000000000000000000000000000000000000000000000))

(assert 

 (= #b0000000000000000000000000000000000000000000000000000000000000000 __ESBMC_ptr_obj_end_0))

(assert 

 (= __ESBMC_ptr_obj_start_1 #b0000000000000000000000000000000000000000000000000000000000000001))

(assert 

 (= #b1111111111111111111111111111111111111111111111111111111111111111 __ESBMC_ptr_obj_end_1))

(assert 

 (= __ESBMC_ptr_obj_end_0 |smt_conv::__ESBMC_ptr_addr_range_0..end0|))

(assert 

 (= __ESBMC_ptr_obj_start_0 |smt_conv::__ESBMC_ptr_addr_range_0..start0|))

(assert 

 (= __ESBMC_ptr_obj_end_1 |smt_conv::__ESBMC_ptr_addr_range_1..end0|))

(assert 

 (= __ESBMC_ptr_obj_start_1 |smt_conv::__ESBMC_ptr_addr_range_1..start0|))

(assert 

 (= |smt_conv::smt_conv::collate_array_vals::3..end0| |smt_conv::smt_conv::collate_array_vals::4..end0|))

(assert 

 (= |smt_conv::smt_conv::collate_array_vals::3..start0| |smt_conv::smt_conv::collate_array_vals::4..start0|))

(assert 

 (= __ESBMC_ptr_obj_end_0 |smt_conv::smt_conv::collate_array_vals::7..end0|))

(assert 

 (= __ESBMC_ptr_obj_start_0 |smt_conv::smt_conv::collate_array_vals::7..start0|))

(assert 

 (= |c:simple_1-1.c@382@F@main@x?1!0&0#2| |nondet$symex::nondet34|))

(assert 

 (= 

  (ite $e1 #b1 #b0) |goto_symex::guard?0!0&0#1|))

(assert 

 (= |c:simple_1-1.c@382@F@main@x?1!0&0#3| 

  (bvadd |c:simple_1-1.c@382@F@main@x?1!0&0#2| #b00000000000000000000000000000010)))

(assert 

 (= |goto_symex::guard?0!0&0#2| 

  (ite 

   (bvult |c:simple_1-1.c@382@F@main@x?1!0&0#3| #b00001111111111111111111111111111) #b1 #b0)))

(assert 

 (= |c:simple_1-1.c@382@F@main@x?1!0&0#4| 

  (bvadd |c:simple_1-1.c@382@F@main@x?1!0&0#3| #b00000000000000000000000000000010)))

(assert 

 (= |goto_symex::guard?0!0&0#3| 

  (ite 

   (bvult |c:simple_1-1.c@382@F@main@x?1!0&0#4| #b00001111111111111111111111111111) #b1 #b0)))

(assert 

 (= |c:simple_1-1.c@382@F@main@x?1!0&0#5| 

  (bvadd #b00000000000000000000000000000010 |c:simple_1-1.c@382@F@main@x?1!0&0#4|)))

(assert 

 (= |goto_symex::guard?0!0&0#4| 

  (ite 

   (bvult |c:simple_1-1.c@382@F@main@x?1!0&0#5| #b00001111111111111111111111111111) #b1 #b0)))

(assert 

 (= |c:simple_1-1.c@382@F@main@x?1!0&0#6| 

  (bvadd #b00000000000000000000000000000010 |c:simple_1-1.c@382@F@main@x?1!0&0#5|)))

(assert 

 (= |goto_symex::guard?0!0&0#5| 

  (ite 

   (bvult |c:simple_1-1.c@382@F@main@x?1!0&0#6| #b00001111111111111111111111111111) #b1 #b0)))

(assert 

 (= |c:simple_1-1.c@382@F@main@x?1!0&0#7| 

  (bvadd #b00000000000000000000000000000010 |c:simple_1-1.c@382@F@main@x?1!0&0#6|)))

(assert 

 (= |goto_symex::guard?0!0&0#6| 

  (ite 

   (bvult |c:simple_1-1.c@382@F@main@x?1!0&0#7| #b00001111111111111111111111111111) #b1 #b0)))

(assert 

 (= |c:simple_1-1.c@382@F@main@x?1!0&0#8| 

  (bvadd #b00000000000000000000000000000010 |c:simple_1-1.c@382@F@main@x?1!0&0#7|)))

(assert 

 (= |goto_symex::guard?0!0&0#7| 

  (ite 

   (bvult |c:simple_1-1.c@382@F@main@x?1!0&0#8| #b00001111111111111111111111111111) #b1 #b0)))

(assert 

 (= |c:simple_1-1.c@382@F@main@x?1!0&0#9| 

  (bvadd #b00000000000000000000000000000010 |c:simple_1-1.c@382@F@main@x?1!0&0#8|)))

(assert 

 (= |goto_symex::guard?0!0&0#8| 

  (ite 

   (bvult |c:simple_1-1.c@382@F@main@x?1!0&0#9| #b00001111111111111111111111111111) #b1 #b0)))

(assert 

 (= |c:simple_1-1.c@382@F@main@x?1!0&0#10| 

  (bvadd #b00000000000000000000000000000010 |c:simple_1-1.c@382@F@main@x?1!0&0#9|)))

(assert 

 (= |goto_symex::guard?0!0&0#9| 

  (ite 

   (bvult |c:simple_1-1.c@382@F@main@x?1!0&0#10| #b00001111111111111111111111111111) #b1 #b0)))

(assert 

 (= |c:simple_1-1.c@382@F@main@x?1!0&0#11| 

  (bvadd #b00000000000000000000000000000010 |c:simple_1-1.c@382@F@main@x?1!0&0#10|)))

(assert 

 (= |goto_symex::guard?0!0&0#10| 

  (ite 

   (bvult |c:simple_1-1.c@382@F@main@x?1!0&0#11| #b00001111111111111111111111111111) #b1 #b0)))

(assert 

 (= |c:simple_1-1.c@382@F@main@x?1!0&0#12| 

  (bvadd #b00000000000000000000000000000010 |c:simple_1-1.c@382@F@main@x?1!0&0#11|)))

(assert 

 (= |goto_symex::guard?0!0&0#11| 

  (ite 

   (bvult |c:simple_1-1.c@382@F@main@x?1!0&0#12| #b00001111111111111111111111111111) #b1 #b0)))

(assert 

 (= |c:simple_1-1.c@382@F@main@x?1!0&0#13| 

  (bvadd #b00000000000000000000000000000010 |c:simple_1-1.c@382@F@main@x?1!0&0#12|)))

(assert 

 (= |goto_symex::guard?0!0&0#12| 

  (ite 

   (bvult |c:simple_1-1.c@382@F@main@x?1!0&0#13| #b00001111111111111111111111111111) #b1 #b0)))

(assert 

 (= |c:simple_1-1.c@382@F@main@x?1!0&0#14| 

  (bvadd #b00000000000000000000000000000010 |c:simple_1-1.c@382@F@main@x?1!0&0#13|)))

(assert 

 (= |goto_symex::guard?0!0&0#13| 

  (ite 

   (bvult |c:simple_1-1.c@382@F@main@x?1!0&0#14| #b00001111111111111111111111111111) #b1 #b0)))

(assert 

 (= |c:simple_1-1.c@382@F@main@x?1!0&0#15| 

  (bvadd #b00000000000000000000000000000010 |c:simple_1-1.c@382@F@main@x?1!0&0#14|)))

(assert 

 (= |goto_symex::guard?0!0&0#14| 

  (ite 

   (bvult |c:simple_1-1.c@382@F@main@x?1!0&0#15| #b00001111111111111111111111111111) #b1 #b0)))

(assert 

 (= |c:simple_1-1.c@382@F@main@x?1!0&0#16| 

  (bvadd #b00000000000000000000000000000010 |c:simple_1-1.c@382@F@main@x?1!0&0#15|)))

(assert 

 (= |goto_symex::guard?0!0&0#15| 

  (ite 

   (bvult |c:simple_1-1.c@382@F@main@x?1!0&0#16| #b00001111111111111111111111111111) #b1 #b0)))

(assert 

 (= |c:simple_1-1.c@382@F@main@x?1!0&0#17| 

  (bvadd #b00000000000000000000000000000010 |c:simple_1-1.c@382@F@main@x?1!0&0#16|)))

(assert 

 (= |goto_symex::guard?0!0&0#16| 

  (ite 

   (bvult |c:simple_1-1.c@382@F@main@x?1!0&0#17| #b00001111111111111111111111111111) #b1 #b0)))

(assert 

 (= |c:simple_1-1.c@382@F@main@x?1!0&0#18| 

  (bvadd #b00000000000000000000000000000010 |c:simple_1-1.c@382@F@main@x?1!0&0#17|)))

(assert 

 (= |goto_symex::guard?0!0&0#17| 

  (ite 

   (bvult |c:simple_1-1.c@382@F@main@x?1!0&0#18| #b00001111111111111111111111111111) #b1 #b0)))

(assert 

 (= |c:simple_1-1.c@382@F@main@x?1!0&0#19| 

  (bvadd #b00000000000000000000000000000010 |c:simple_1-1.c@382@F@main@x?1!0&0#18|)))

(assert 

 (= |goto_symex::guard?0!0&0#18| 

  (ite 

   (bvult |c:simple_1-1.c@382@F@main@x?1!0&0#19| #b00001111111111111111111111111111) #b1 #b0)))

(assert 

 (= |c:simple_1-1.c@382@F@main@x?1!0&0#20| 

  (bvadd #b00000000000000000000000000000010 |c:simple_1-1.c@382@F@main@x?1!0&0#19|)))

(assert 

 (= |goto_symex::guard?0!0&0#19| 

  (ite 

   (bvult |c:simple_1-1.c@382@F@main@x?1!0&0#20| #b00001111111111111111111111111111) #b1 #b0)))

(assert 

 (= |c:simple_1-1.c@382@F@main@x?1!0&0#21| 

  (bvadd #b00000000000000000000000000000010 |c:simple_1-1.c@382@F@main@x?1!0&0#20|)))

(assert 

 (= |goto_symex::guard?0!0&0#20| 

  (ite 

   (bvult |c:simple_1-1.c@382@F@main@x?1!0&0#21| #b00001111111111111111111111111111) #b1 #b0)))

(assert 

 (= |c:simple_1-1.c@382@F@main@x?1!0&0#22| 

  (bvadd #b00000000000000000000000000000010 |c:simple_1-1.c@382@F@main@x?1!0&0#21|)))

(assert 

 (= |goto_symex::guard?0!0&0#21| 

  (ite 

   (bvult |c:simple_1-1.c@382@F@main@x?1!0&0#22| #b00001111111111111111111111111111) #b1 #b0)))

(assert 

 (= |c:simple_1-1.c@382@F@main@x?1!0&0#23| 

  (bvadd #b00000000000000000000000000000010 |c:simple_1-1.c@382@F@main@x?1!0&0#22|)))

(assert 

 (= |goto_symex::guard?0!0&0#22| 

  (ite 

   (bvult |c:simple_1-1.c@382@F@main@x?1!0&0#23| #b00001111111111111111111111111111) #b1 #b0)))

(assert 

 (= |c:simple_1-1.c@382@F@main@x?1!0&0#24| 

  (bvadd #b00000000000000000000000000000010 |c:simple_1-1.c@382@F@main@x?1!0&0#23|)))

(assert 

 (= |goto_symex::guard?0!0&0#23| 

  (ite 

   (bvult |c:simple_1-1.c@382@F@main@x?1!0&0#24| #b00001111111111111111111111111111) #b1 #b0)))

(assert 

 (= |c:simple_1-1.c@382@F@main@x?1!0&0#25| 

  (bvadd #b00000000000000000000000000000010 |c:simple_1-1.c@382@F@main@x?1!0&0#24|)))

(assert 

 (= |goto_symex::guard?0!0&0#24| 

  (ite 

   (bvult |c:simple_1-1.c@382@F@main@x?1!0&0#25| #b00001111111111111111111111111111) #b1 #b0)))

(assert 

 (= |c:simple_1-1.c@382@F@main@x?1!0&0#26| 

  (bvadd #b00000000000000000000000000000010 |c:simple_1-1.c@382@F@main@x?1!0&0#25|)))

(assert 

 (= |goto_symex::guard?0!0&0#25| 

  (ite 

   (bvult |c:simple_1-1.c@382@F@main@x?1!0&0#26| #b00001111111111111111111111111111) #b1 #b0)))

(assert 

 (= |c:simple_1-1.c@382@F@main@x?1!0&0#27| 

  (bvadd #b00000000000000000000000000000010 |c:simple_1-1.c@382@F@main@x?1!0&0#26|)))

(assert 

 (= |goto_symex::guard?0!0&0#26| 

  (ite 

   (bvult |c:simple_1-1.c@382@F@main@x?1!0&0#27| #b00001111111111111111111111111111) #b1 #b0)))

(assert 

 (= |c:simple_1-1.c@382@F@main@x?1!0&0#28| 

  (bvadd #b00000000000000000000000000000010 |c:simple_1-1.c@382@F@main@x?1!0&0#27|)))

(assert 

 (= |goto_symex::guard?0!0&0#27| 

  (ite 

   (bvult |c:simple_1-1.c@382@F@main@x?1!0&0#28| #b00001111111111111111111111111111) #b1 #b0)))

(assert 

 (= |c:simple_1-1.c@382@F@main@x?1!0&0#29| 

  (bvadd #b00000000000000000000000000000010 |c:simple_1-1.c@382@F@main@x?1!0&0#28|)))

(assert 

 (= |goto_symex::guard?0!0&0#28| 

  (ite 

   (bvult |c:simple_1-1.c@382@F@main@x?1!0&0#29| #b00001111111111111111111111111111) #b1 #b0)))

(assert 

 (= |c:simple_1-1.c@382@F@main@x?1!0&0#30| 

  (bvadd #b00000000000000000000000000000010 |c:simple_1-1.c@382@F@main@x?1!0&0#29|)))

(assert 

 (= |goto_symex::guard?0!0&0#29| 

  (ite 

   (bvult |c:simple_1-1.c@382@F@main@x?1!0&0#30| #b00001111111111111111111111111111) #b1 #b0)))

(assert 

 (= |c:simple_1-1.c@382@F@main@x?1!0&0#31| 

  (bvadd #b00000000000000000000000000000010 |c:simple_1-1.c@382@F@main@x?1!0&0#30|)))

(assert 

 (= |goto_symex::guard?0!0&0#30| 

  (ite 

   (bvult |c:simple_1-1.c@382@F@main@x?1!0&0#31| #b00001111111111111111111111111111) #b1 #b0)))

(assert 

 (= |c:simple_1-1.c@382@F@main@x?1!0&0#32| 

  (bvadd #b00000000000000000000000000000010 |c:simple_1-1.c@382@F@main@x?1!0&0#31|)))

(assert 

 (= |goto_symex::guard?0!0&0#31| 

  (ite 

   (bvult |c:simple_1-1.c@382@F@main@x?1!0&0#32| #b00001111111111111111111111111111) #b1 #b0)))

(assert 

 (= |c:simple_1-1.c@382@F@main@x?1!0&0#33| 

  (bvadd #b00000000000000000000000000000010 |c:simple_1-1.c@382@F@main@x?1!0&0#32|)))

(assert 

 (= |goto_symex::guard?0!0&0#32| 

  (ite 

   (bvult |c:simple_1-1.c@382@F@main@x?1!0&0#33| #b00001111111111111111111111111111) #b1 #b0)))

(assert 

 (= |c:simple_1-1.c@382@F@main@x?1!0&0#34| 

  (bvadd #b00000000000000000000000000000010 |c:simple_1-1.c@382@F@main@x?1!0&0#33|)))

(assert 

 (= |goto_symex::guard?0!0&0#33| 

  (ite 

   (bvult |c:simple_1-1.c@382@F@main@x?1!0&0#34| #b00001111111111111111111111111111) #b1 #b0)))

(assert 

 (= |c:simple_1-1.c@382@F@main@x?1!0&0#35| 

  (bvadd #b00000000000000000000000000000010 |c:simple_1-1.c@382@F@main@x?1!0&0#34|)))

(assert 

 (= |goto_symex::guard?0!0&0#34| 

  (ite 

   (bvult |c:simple_1-1.c@382@F@main@x?1!0&0#35| #b00001111111111111111111111111111) #b1 #b0)))

(assert 

 (= |c:simple_1-1.c@382@F@main@x?1!0&0#36| 

  (bvadd #b00000000000000000000000000000010 |c:simple_1-1.c@382@F@main@x?1!0&0#35|)))

(assert 

 (= |goto_symex::guard?0!0&0#35| 

  (ite 

   (bvult |c:simple_1-1.c@382@F@main@x?1!0&0#36| #b00001111111111111111111111111111) #b1 #b0)))

(assert 

 (= |c:simple_1-1.c@382@F@main@x?1!0&0#37| 

  (bvadd #b00000000000000000000000000000010 |c:simple_1-1.c@382@F@main@x?1!0&0#36|)))

(assert 

 (= |goto_symex::guard?0!0&0#36| 

  (ite 

   (bvult |c:simple_1-1.c@382@F@main@x?1!0&0#37| #b00001111111111111111111111111111) #b1 #b0)))

(assert 

 (= |c:simple_1-1.c@382@F@main@x?1!0&0#38| 

  (bvadd #b00000000000000000000000000000010 |c:simple_1-1.c@382@F@main@x?1!0&0#37|)))

(assert 

 (= |c:simple_1-1.c@382@F@main@x?1!0&0#39| 

  (ite 

   (= #b1 |goto_symex::guard?0!0&0#36|) |c:simple_1-1.c@382@F@main@x?1!0&0#38| |c:simple_1-1.c@382@F@main@x?1!0&0#37|)))

(assert 

 (= |c:simple_1-1.c@382@F@main@x?1!0&0#40| 

  (ite 

   (= #b1 |goto_symex::guard?0!0&0#35|) |c:simple_1-1.c@382@F@main@x?1!0&0#39| |c:simple_1-1.c@382@F@main@x?1!0&0#36|)))

(assert 

 (= |c:simple_1-1.c@382@F@main@x?1!0&0#41| 

  (ite 

   (= #b1 |goto_symex::guard?0!0&0#34|) |c:simple_1-1.c@382@F@main@x?1!0&0#40| |c:simple_1-1.c@382@F@main@x?1!0&0#35|)))

(assert 

 (= |c:simple_1-1.c@382@F@main@x?1!0&0#42| 

  (ite 

   (= #b1 |goto_symex::guard?0!0&0#33|) |c:simple_1-1.c@382@F@main@x?1!0&0#41| |c:simple_1-1.c@382@F@main@x?1!0&0#34|)))

(assert 

 (= |c:simple_1-1.c@382@F@main@x?1!0&0#43| 

  (ite 

   (= #b1 |goto_symex::guard?0!0&0#32|) |c:simple_1-1.c@382@F@main@x?1!0&0#42| |c:simple_1-1.c@382@F@main@x?1!0&0#33|)))

(assert 

 (= |c:simple_1-1.c@382@F@main@x?1!0&0#44| 

  (ite 

   (= #b1 |goto_symex::guard?0!0&0#31|) |c:simple_1-1.c@382@F@main@x?1!0&0#43| |c:simple_1-1.c@382@F@main@x?1!0&0#32|)))

(assert 

 (= |c:simple_1-1.c@382@F@main@x?1!0&0#45| 

  (ite 

   (= #b1 |goto_symex::guard?0!0&0#30|) |c:simple_1-1.c@382@F@main@x?1!0&0#44| |c:simple_1-1.c@382@F@main@x?1!0&0#31|)))

(assert 

 (= |c:simple_1-1.c@382@F@main@x?1!0&0#46| 

  (ite 

   (= #b1 |goto_symex::guard?0!0&0#29|) |c:simple_1-1.c@382@F@main@x?1!0&0#45| |c:simple_1-1.c@382@F@main@x?1!0&0#30|)))

(assert 

 (= |c:simple_1-1.c@382@F@main@x?1!0&0#47| 

  (ite 

   (= #b1 |goto_symex::guard?0!0&0#28|) |c:simple_1-1.c@382@F@main@x?1!0&0#46| |c:simple_1-1.c@382@F@main@x?1!0&0#29|)))

(assert 

 (= |c:simple_1-1.c@382@F@main@x?1!0&0#48| 

  (ite 

   (= #b1 |goto_symex::guard?0!0&0#27|) |c:simple_1-1.c@382@F@main@x?1!0&0#47| |c:simple_1-1.c@382@F@main@x?1!0&0#28|)))

(assert 

 (= |c:simple_1-1.c@382@F@main@x?1!0&0#49| 

  (ite 

   (= #b1 |goto_symex::guard?0!0&0#26|) |c:simple_1-1.c@382@F@main@x?1!0&0#48| |c:simple_1-1.c@382@F@main@x?1!0&0#27|)))

(assert 

 (= |c:simple_1-1.c@382@F@main@x?1!0&0#50| 

  (ite 

   (= #b1 |goto_symex::guard?0!0&0#25|) |c:simple_1-1.c@382@F@main@x?1!0&0#49| |c:simple_1-1.c@382@F@main@x?1!0&0#26|)))

(assert 

 (= |c:simple_1-1.c@382@F@main@x?1!0&0#51| 

  (ite 

   (= #b1 |goto_symex::guard?0!0&0#24|) |c:simple_1-1.c@382@F@main@x?1!0&0#50| |c:simple_1-1.c@382@F@main@x?1!0&0#25|)))

(assert 

 (= |c:simple_1-1.c@382@F@main@x?1!0&0#52| 

  (ite 

   (= #b1 |goto_symex::guard?0!0&0#23|) |c:simple_1-1.c@382@F@main@x?1!0&0#51| |c:simple_1-1.c@382@F@main@x?1!0&0#24|)))

(assert 

 (= |c:simple_1-1.c@382@F@main@x?1!0&0#53| 

  (ite 

   (= #b1 |goto_symex::guard?0!0&0#22|) |c:simple_1-1.c@382@F@main@x?1!0&0#52| |c:simple_1-1.c@382@F@main@x?1!0&0#23|)))

(assert 

 (= |c:simple_1-1.c@382@F@main@x?1!0&0#54| 

  (ite 

   (= #b1 |goto_symex::guard?0!0&0#21|) |c:simple_1-1.c@382@F@main@x?1!0&0#53| |c:simple_1-1.c@382@F@main@x?1!0&0#22|)))

(assert 

 (= |c:simple_1-1.c@382@F@main@x?1!0&0#55| 

  (ite 

   (= #b1 |goto_symex::guard?0!0&0#20|) |c:simple_1-1.c@382@F@main@x?1!0&0#54| |c:simple_1-1.c@382@F@main@x?1!0&0#21|)))

(assert 

 (= |c:simple_1-1.c@382@F@main@x?1!0&0#56| 

  (ite 

   (= #b1 |goto_symex::guard?0!0&0#19|) |c:simple_1-1.c@382@F@main@x?1!0&0#55| |c:simple_1-1.c@382@F@main@x?1!0&0#20|)))

(assert 

 (= |c:simple_1-1.c@382@F@main@x?1!0&0#57| 

  (ite 

   (= #b1 |goto_symex::guard?0!0&0#18|) |c:simple_1-1.c@382@F@main@x?1!0&0#56| |c:simple_1-1.c@382@F@main@x?1!0&0#19|)))

(assert 

 (= |c:simple_1-1.c@382@F@main@x?1!0&0#58| 

  (ite 

   (= #b1 |goto_symex::guard?0!0&0#17|) |c:simple_1-1.c@382@F@main@x?1!0&0#57| |c:simple_1-1.c@382@F@main@x?1!0&0#18|)))

(assert 

 (= |c:simple_1-1.c@382@F@main@x?1!0&0#59| 

  (ite 

   (= #b1 |goto_symex::guard?0!0&0#16|) |c:simple_1-1.c@382@F@main@x?1!0&0#58| |c:simple_1-1.c@382@F@main@x?1!0&0#17|)))

(assert 

 (= |c:simple_1-1.c@382@F@main@x?1!0&0#60| 

  (ite 

   (= #b1 |goto_symex::guard?0!0&0#15|) |c:simple_1-1.c@382@F@main@x?1!0&0#59| |c:simple_1-1.c@382@F@main@x?1!0&0#16|)))

(assert 

 (= |c:simple_1-1.c@382@F@main@x?1!0&0#61| 

  (ite 

   (= #b1 |goto_symex::guard?0!0&0#14|) |c:simple_1-1.c@382@F@main@x?1!0&0#60| |c:simple_1-1.c@382@F@main@x?1!0&0#15|)))

(assert 

 (= |c:simple_1-1.c@382@F@main@x?1!0&0#62| 

  (ite 

   (= #b1 |goto_symex::guard?0!0&0#13|) |c:simple_1-1.c@382@F@main@x?1!0&0#61| |c:simple_1-1.c@382@F@main@x?1!0&0#14|)))

(assert 

 (= |c:simple_1-1.c@382@F@main@x?1!0&0#63| 

  (ite 

   (= #b1 |goto_symex::guard?0!0&0#12|) |c:simple_1-1.c@382@F@main@x?1!0&0#62| |c:simple_1-1.c@382@F@main@x?1!0&0#13|)))

(assert 

 (= |c:simple_1-1.c@382@F@main@x?1!0&0#64| 

  (ite 

   (= #b1 |goto_symex::guard?0!0&0#11|) |c:simple_1-1.c@382@F@main@x?1!0&0#63| |c:simple_1-1.c@382@F@main@x?1!0&0#12|)))

(assert 

 (= |c:simple_1-1.c@382@F@main@x?1!0&0#65| 

  (ite 

   (= #b1 |goto_symex::guard?0!0&0#10|) |c:simple_1-1.c@382@F@main@x?1!0&0#64| |c:simple_1-1.c@382@F@main@x?1!0&0#11|)))

(assert 

 (= |c:simple_1-1.c@382@F@main@x?1!0&0#66| 

  (ite 

   (= #b1 |goto_symex::guard?0!0&0#9|) |c:simple_1-1.c@382@F@main@x?1!0&0#65| |c:simple_1-1.c@382@F@main@x?1!0&0#10|)))

(assert 

 (= |c:simple_1-1.c@382@F@main@x?1!0&0#67| 

  (ite 

   (= #b1 |goto_symex::guard?0!0&0#8|) |c:simple_1-1.c@382@F@main@x?1!0&0#66| |c:simple_1-1.c@382@F@main@x?1!0&0#9|)))

(assert 

 (= |c:simple_1-1.c@382@F@main@x?1!0&0#68| 

  (ite 

   (= #b1 |goto_symex::guard?0!0&0#7|) |c:simple_1-1.c@382@F@main@x?1!0&0#67| |c:simple_1-1.c@382@F@main@x?1!0&0#8|)))

(assert 

 (= |c:simple_1-1.c@382@F@main@x?1!0&0#69| 

  (ite 

   (= #b1 |goto_symex::guard?0!0&0#6|) |c:simple_1-1.c@382@F@main@x?1!0&0#68| |c:simple_1-1.c@382@F@main@x?1!0&0#7|)))

(assert 

 (= |c:simple_1-1.c@382@F@main@x?1!0&0#70| 

  (ite 

   (= #b1 |goto_symex::guard?0!0&0#5|) |c:simple_1-1.c@382@F@main@x?1!0&0#69| |c:simple_1-1.c@382@F@main@x?1!0&0#6|)))

(assert 

 (= |c:simple_1-1.c@382@F@main@x?1!0&0#71| 

  (ite 

   (= #b1 |goto_symex::guard?0!0&0#4|) |c:simple_1-1.c@382@F@main@x?1!0&0#70| |c:simple_1-1.c@382@F@main@x?1!0&0#5|)))

(assert 

 (= |c:simple_1-1.c@382@F@main@x?1!0&0#72| 

  (ite 

   (= #b1 |goto_symex::guard?0!0&0#3|) |c:simple_1-1.c@382@F@main@x?1!0&0#71| |c:simple_1-1.c@382@F@main@x?1!0&0#4|)))

(assert 

 (= |c:simple_1-1.c@382@F@main@x?1!0&0#73| 

  (ite 

   (= #b1 |goto_symex::guard?0!0&0#2|) |c:simple_1-1.c@382@F@main@x?1!0&0#72| |c:simple_1-1.c@382@F@main@x?1!0&0#3|)))

(assert 

 (= |c:simple_1-1.c@382@F@main@x?1!0&0#74| 

  (ite 

   (= #b1 |goto_symex::guard?0!0&0#1|) |c:simple_1-1.c@382@F@main@x?1!0&0#73| |c:simple_1-1.c@382@F@main@x?1!0&0#2|)))

(assert 

 (= |c:simple_1-1.c@281@F@__VERIFIER_assert@cond?1!0&0#1| 

  (bvurem |c:simple_1-1.c@382@F@main@x?1!0&0#74| #b00000000000000000000000000000010)))

(assert 

 (= |goto_symex::guard?0!0&0#37| 

  (ite $e36 #b1 #b0)))

(assert (= 

 (bvnot 

  (bvand |goto_symex::guard?0!0&0#37| 

   (bvnot 

    (ite $e36 #b1 #b0)))) #b1))

(assert (= 

 (bvnot 

  (bvand 

   (bvand $e35 |goto_symex::guard?0!0&0#36|) 

   (ite 

    (bvult #b00001111111111111111111111111110 |c:simple_1-1.c@382@F@main@x?1!0&0#37|) #b1 #b0))) #b1))

(assert (= 

 (bvnot 

  (bvand $e35 

   (ite 

    (bvult #b00001111111111111111111111111110 |c:simple_1-1.c@382@F@main@x?1!0&0#36|) #b1 #b0))) #b1))

(assert (= 

 (bvnot 

  (bvand $e34 

   (ite 

    (bvult #b00001111111111111111111111111110 |c:simple_1-1.c@382@F@main@x?1!0&0#35|) #b1 #b0))) #b1))

(assert (= 

 (bvnot 

  (bvand $e33 

   (ite 

    (bvult #b00001111111111111111111111111110 |c:simple_1-1.c@382@F@main@x?1!0&0#34|) #b1 #b0))) #b1))

(assert (= 

 (bvnot 

  (bvand $e32 

   (ite 

    (bvult #b00001111111111111111111111111110 |c:simple_1-1.c@382@F@main@x?1!0&0#33|) #b1 #b0))) #b1))

(assert (= 

 (bvnot 

  (bvand $e31 

   (ite 

    (bvult #b00001111111111111111111111111110 |c:simple_1-1.c@382@F@main@x?1!0&0#32|) #b1 #b0))) #b1))

(assert (= 

 (bvnot 

  (bvand $e30 

   (ite 

    (bvult #b00001111111111111111111111111110 |c:simple_1-1.c@382@F@main@x?1!0&0#31|) #b1 #b0))) #b1))

(assert (= 

 (bvnot 

  (bvand $e29 

   (ite 

    (bvult #b00001111111111111111111111111110 |c:simple_1-1.c@382@F@main@x?1!0&0#30|) #b1 #b0))) #b1))

(assert (= 

 (bvnot 

  (bvand $e28 

   (ite 

    (bvult #b00001111111111111111111111111110 |c:simple_1-1.c@382@F@main@x?1!0&0#29|) #b1 #b0))) #b1))

(assert (= 

 (bvnot 

  (bvand $e27 

   (ite 

    (bvult #b00001111111111111111111111111110 |c:simple_1-1.c@382@F@main@x?1!0&0#28|) #b1 #b0))) #b1))

(assert (= 

 (bvnot 

  (bvand $e26 

   (ite 

    (bvult #b00001111111111111111111111111110 |c:simple_1-1.c@382@F@main@x?1!0&0#27|) #b1 #b0))) #b1))

(assert (= 

 (bvnot 

  (bvand $e25 

   (ite 

    (bvult #b00001111111111111111111111111110 |c:simple_1-1.c@382@F@main@x?1!0&0#26|) #b1 #b0))) #b1))

(assert (= 

 (bvnot 

  (bvand $e24 

   (ite 

    (bvult #b00001111111111111111111111111110 |c:simple_1-1.c@382@F@main@x?1!0&0#25|) #b1 #b0))) #b1))

(assert (= 

 (bvnot 

  (bvand $e23 

   (ite 

    (bvult #b00001111111111111111111111111110 |c:simple_1-1.c@382@F@main@x?1!0&0#24|) #b1 #b0))) #b1))

(assert (= 

 (bvnot 

  (bvand $e22 

   (ite 

    (bvult #b00001111111111111111111111111110 |c:simple_1-1.c@382@F@main@x?1!0&0#23|) #b1 #b0))) #b1))

(assert (= 

 (bvnot 

  (bvand $e21 

   (ite 

    (bvult #b00001111111111111111111111111110 |c:simple_1-1.c@382@F@main@x?1!0&0#22|) #b1 #b0))) #b1))

(assert (= 

 (bvnot 

  (bvand $e20 

   (ite 

    (bvult #b00001111111111111111111111111110 |c:simple_1-1.c@382@F@main@x?1!0&0#21|) #b1 #b0))) #b1))

(assert (= 

 (bvnot 

  (bvand $e19 

   (ite 

    (bvult #b00001111111111111111111111111110 |c:simple_1-1.c@382@F@main@x?1!0&0#20|) #b1 #b0))) #b1))

(assert (= 

 (bvnot 

  (bvand $e18 

   (ite 

    (bvult #b00001111111111111111111111111110 |c:simple_1-1.c@382@F@main@x?1!0&0#19|) #b1 #b0))) #b1))

(assert (= 

 (bvnot 

  (bvand $e17 

   (ite 

    (bvult #b00001111111111111111111111111110 |c:simple_1-1.c@382@F@main@x?1!0&0#18|) #b1 #b0))) #b1))

(assert (= 

 (bvnot 

  (bvand $e16 

   (ite 

    (bvult #b00001111111111111111111111111110 |c:simple_1-1.c@382@F@main@x?1!0&0#17|) #b1 #b0))) #b1))

(assert (= 

 (bvnot 

  (bvand $e15 

   (ite 

    (bvult #b00001111111111111111111111111110 |c:simple_1-1.c@382@F@main@x?1!0&0#16|) #b1 #b0))) #b1))

(assert (= 

 (bvnot 

  (bvand $e14 

   (ite 

    (bvult #b00001111111111111111111111111110 |c:simple_1-1.c@382@F@main@x?1!0&0#15|) #b1 #b0))) #b1))

(assert (= 

 (bvnot 

  (bvand $e13 

   (ite 

    (bvult #b00001111111111111111111111111110 |c:simple_1-1.c@382@F@main@x?1!0&0#14|) #b1 #b0))) #b1))

(assert (= 

 (bvnot 

  (bvand $e12 

   (ite 

    (bvult #b00001111111111111111111111111110 |c:simple_1-1.c@382@F@main@x?1!0&0#13|) #b1 #b0))) #b1))

(assert (= 

 (bvnot 

  (bvand $e11 

   (ite 

    (bvult #b00001111111111111111111111111110 |c:simple_1-1.c@382@F@main@x?1!0&0#12|) #b1 #b0))) #b1))

(assert (= 

 (bvnot 

  (bvand $e10 

   (ite 

    (bvult #b00001111111111111111111111111110 |c:simple_1-1.c@382@F@main@x?1!0&0#11|) #b1 #b0))) #b1))

(assert (= 

 (bvnot 

  (bvand $e9 

   (ite 

    (bvult #b00001111111111111111111111111110 |c:simple_1-1.c@382@F@main@x?1!0&0#10|) #b1 #b0))) #b1))

(assert (= 

 (bvnot 

  (bvand $e8 

   (ite 

    (bvult #b00001111111111111111111111111110 |c:simple_1-1.c@382@F@main@x?1!0&0#9|) #b1 #b0))) #b1))

(assert (= 

 (bvnot 

  (bvand $e7 

   (ite 

    (bvult #b00001111111111111111111111111110 |c:simple_1-1.c@382@F@main@x?1!0&0#8|) #b1 #b0))) #b1))

(assert (= 

 (bvnot 

  (bvand $e6 

   (ite 

    (bvult #b00001111111111111111111111111110 |c:simple_1-1.c@382@F@main@x?1!0&0#7|) #b1 #b0))) #b1))

(assert (= 

 (bvnot 

  (bvand $e5 

   (ite 

    (bvult #b00001111111111111111111111111110 |c:simple_1-1.c@382@F@main@x?1!0&0#6|) #b1 #b0))) #b1))

(assert (= 

 (bvnot 

  (bvand $e4 

   (ite 

    (bvult #b00001111111111111111111111111110 |c:simple_1-1.c@382@F@main@x?1!0&0#5|) #b1 #b0))) #b1))

(assert (= 

 (bvnot 

  (bvand $e3 

   (ite 

    (bvult #b00001111111111111111111111111110 |c:simple_1-1.c@382@F@main@x?1!0&0#4|) #b1 #b0))) #b1))

(assert (= 

 (bvnot 

  (bvand $e2 

   (ite 

    (bvult #b00001111111111111111111111111110 |c:simple_1-1.c@382@F@main@x?1!0&0#3|) #b1 #b0))) #b1))

(assert (= 

 (bvnot 

  (bvand |goto_symex::guard?0!0&0#1| 

   (ite 

    (bvult #b00001111111111111111111111111110 |c:simple_1-1.c@382@F@main@x?1!0&0#2|) #b1 #b0))) #b1))

(assert $e1)

(assert (= |execution_statet::guard_exec?0!0| #b1))

(assert (= |goto_symex::guard?0!0&0#37| #b1))

(check-sat)

(exit)
